(declare-fun temp5614_1 () (_ BitVec 64))
(declare-fun var139826 () (_ BitVec 64))
(declare-fun var139820 () (_ BitVec 64))
(declare-fun temp5614_2 () (_ BitVec 64))
(declare-fun var75949 () (_ BitVec 64))
(declare-fun k!0 () Bool)
(declare-fun ARGNAME_filter_sizes_NAMEEND_DIM () (_ BitVec 64))
(declare-fun ARGNAME_data_format_NAMEEND_STRFMT () (_ BitVec 64))
(declare-fun temp5614_3 () (_ BitVec 64))
(declare-fun var76022 () (_ BitVec 64))
(declare-fun var76026 () (_ BitVec 64))
(declare-fun temp5614_4 () (_ BitVec 64))
(declare-fun var76027 () (_ BitVec 64))
(declare-fun temp5614_5 () (_ BitVec 64))
(declare-fun temp5614_6 () (_ BitVec 64))
(declare-fun ARGNAME_input_NAMEEND_DIM () (_ BitVec 64))
(declare-fun var76042 () (_ BitVec 64))
(declare-fun temp5614_7 () (_ BitVec 64))
(declare-fun temp5614_8 () (_ BitVec 64))
(declare-fun ARGNAME_out_backprop_NAMEEND_DIM () (_ BitVec 64))
(declare-fun var76103 () (_ BitVec 64))
(declare-fun temp5614_9 () (_ BitVec 64))
(declare-fun temp5614_10 () (_ BitVec 64))
(declare-fun ARGNAME_input_NAMEEND_DIMSIZE
             ()
             (Array (_ BitVec 64) (_ BitVec 64)))
(declare-fun temp5614_11 () (_ BitVec 64))
(declare-fun temp5614_12 () (_ BitVec 64))
(declare-fun temp5614_13 () (_ BitVec 64))
(declare-fun temp5614_14 () (_ BitVec 64))
(declare-fun temp5614_15 () (_ BitVec 64))
(declare-fun temp5614_16 () (_ BitVec 64))
(declare-fun temp5614_17 () (_ BitVec 64))
(declare-fun temp5614_18 () (_ BitVec 64))
(declare-fun temp5614_19 () (_ BitVec 64))
(declare-fun temp5614_20 () (_ BitVec 64))
(declare-fun temp5614_21 () (_ BitVec 64))
(declare-fun temp5614_22 () (_ BitVec 64))
(declare-fun temp5614_23 () (_ BitVec 64))
(declare-fun var76131 () (_ BitVec 64))
(declare-fun temp5614_24 () (_ BitVec 64))
(declare-fun ARGNAME_out_backprop_NAMEEND_DIMSIZE
             ()
             (Array (_ BitVec 64) (_ BitVec 64)))
(declare-fun temp5614_25 () (_ BitVec 64))
(declare-fun temp5614_26 () (_ BitVec 64))
(declare-fun temp5614_27 () (_ BitVec 64))
(declare-fun temp5614_28 () (_ BitVec 64))
(declare-fun temp5614_29 () (_ BitVec 64))
(declare-fun temp5614_30 () (_ BitVec 64))
(declare-fun temp5614_31 () (_ BitVec 64))
(declare-fun temp5614_32 () (_ BitVec 64))
(declare-fun temp5614_33 () (_ BitVec 64))
(declare-fun temp5614_34 () (_ BitVec 64))
(declare-fun temp5614_35 () (_ BitVec 64))
(declare-fun temp5614_36 () (_ BitVec 64))
(declare-fun temp5614_37 () (_ BitVec 64))
(declare-fun var76165 () (_ BitVec 64))
(declare-fun temp5614_38 () (_ BitVec 64))
(declare-fun ARGNAME_input_NAMEEND_NUMELEMENT () (_ BitVec 64))
(declare-fun var76268 () (_ BitVec 64))
(declare-fun temp5614_39 () (_ BitVec 64))
(declare-fun temp5614_40 () (_ BitVec 64))
(declare-fun var341046 () (_ BitVec 64))
(declare-fun temp5614_41 () (_ BitVec 64))
(declare-fun var341064 () (_ BitVec 64))
(declare-fun temp5614_42 () (_ BitVec 64))
(declare-fun temp5614_43 () (_ BitVec 64))
(declare-fun var472118 () (_ BitVec 64))
(declare-fun temp5614_44 () (_ BitVec 64))
(declare-fun var472136 () (_ BitVec 64))
(declare-fun temp5614_45 () (_ BitVec 64))
(declare-fun temp5614_47 () (_ BitVec 64))
(declare-fun temp5614_46 () (_ BitVec 64))
(declare-fun temp5614_49 () (_ BitVec 64))
(declare-fun temp5614_48 () (_ BitVec 64))
(declare-fun temp5614_50 () (_ BitVec 64))
(declare-fun var603190 () (_ BitVec 64))
(declare-fun temp5614_51 () (_ BitVec 64))
(declare-fun var603208 () (_ BitVec 64))
(declare-fun temp5614_52 () (_ BitVec 64))
(declare-fun temp5614_54 () (_ BitVec 64))
(declare-fun temp5614_53 () (_ BitVec 64))
(declare-fun temp5614_56 () (_ BitVec 64))
(declare-fun temp5614_55 () (_ BitVec 64))
(declare-fun temp5614_58 () (_ BitVec 64))
(declare-fun temp5614_57 () (_ BitVec 64))
(declare-fun temp5614_60 () (_ BitVec 64))
(declare-fun temp5614_59 () (_ BitVec 64))
(declare-fun temp5614_61 () (_ BitVec 64))
(declare-fun var861259 () (_ BitVec 64))
(declare-fun var861238 () (_ BitVec 64))
(declare-fun var795670 () (_ BitVec 64))
(declare-fun temp5614_62 () (_ BitVec 64))
(declare-fun temp5614_63 () (_ BitVec 64))
(declare-fun var926795 () (_ BitVec 64))
(declare-fun var926774 () (_ BitVec 64))
(declare-fun var795680 () (_ BitVec 64))
(declare-fun temp5614_64 () (_ BitVec 64))
(declare-fun temp5614_65 () (_ BitVec 64))
(declare-fun var992331 () (_ BitVec 64))
(declare-fun var992310 () (_ BitVec 64))
(declare-fun var795683 () (_ BitVec 64))
(declare-fun temp5614_66 () (_ BitVec 64))
(declare-fun temp5614_67 () (_ BitVec 64))
(declare-fun var1188914 () (_ BitVec 64))
(declare-fun temp5614_68 () (_ BitVec 64))
(declare-fun var1254450 () (_ BitVec 64))
(declare-fun temp5614_69 () (_ BitVec 64))
(declare-fun var1319986 () (_ BitVec 64))
(assert (or (= ARGNAME_data_format_NAMEEND_STRFMT #x0000000000000000)
    (= ARGNAME_data_format_NAMEEND_STRFMT #x0000000000000001)
    (= ARGNAME_data_format_NAMEEND_STRFMT #x0000000000000002)
    (= ARGNAME_data_format_NAMEEND_STRFMT #x0000000000000003)
    (= ARGNAME_data_format_NAMEEND_STRFMT #x0000000000000004)
    (= ARGNAME_data_format_NAMEEND_STRFMT #x0000000000000005)))
(assert (= temp5614_1 #x0000000000000001))
(assert (= var139826
   (ite (= ARGNAME_filter_sizes_NAMEEND_DIM temp5614_1)
        #x0000000000000001
        #x0000000000000000)))
(assert (= var139820 var139826))
(assert (= var75949 var139820))
(assert (= temp5614_2 #x0000000000000001))
(assert (= var75949 temp5614_2))
(assert (= temp5614_3 #x0000000000000000))
(assert (= var76022 temp5614_3))
(assert (= var76026 var76022))
(assert (= temp5614_4 #x0000000000000000))
(assert (= var76027 (ite (= var76026 temp5614_4) #x0000000000000001 #x0000000000000000)))
(assert (= temp5614_5 #x0000000000000001))
(assert (= var76027 temp5614_5))
(assert (= temp5614_6 #x0000000000000005))
(assert (= var76042
   (ite (= ARGNAME_input_NAMEEND_DIM temp5614_6)
        #x0000000000000001
        #x0000000000000000)))
(assert (= temp5614_7 #x0000000000000001))
(assert (= var76042 temp5614_7))
(assert (= temp5614_8 #x0000000000000005))
(assert (= var76103
   (ite (= ARGNAME_out_backprop_NAMEEND_DIM temp5614_8)
        #x0000000000000001
        #x0000000000000000)))
(assert (= temp5614_9 #x0000000000000001))
(assert (= var76103 temp5614_9))
(assert (= temp5614_10 #x0000000000000000))
(assert (= temp5614_11 (select ARGNAME_input_NAMEEND_DIMSIZE temp5614_10)))
(assert (= temp5614_12 #x0000000000000001))
(assert (= temp5614_13 (select ARGNAME_input_NAMEEND_DIMSIZE temp5614_12)))
(assert (= temp5614_14 #x0000000000000002))
(assert (= temp5614_15 (select ARGNAME_input_NAMEEND_DIMSIZE temp5614_14)))
(assert (= temp5614_16 #x0000000000000003))
(assert (= temp5614_17 (select ARGNAME_input_NAMEEND_DIMSIZE temp5614_16)))
(assert (= temp5614_18 #x0000000000000004))
(assert (= temp5614_19 (select ARGNAME_input_NAMEEND_DIMSIZE temp5614_18)))
(assert (= temp5614_20 #x0000000000000005))
(assert (= temp5614_21 (select ARGNAME_input_NAMEEND_DIMSIZE temp5614_20)))
(assert (= temp5614_22 #x0000000000000004))
(assert (= temp5614_23 (select ARGNAME_input_NAMEEND_DIMSIZE temp5614_22)))
(assert (= var76131 temp5614_23))
(assert (= temp5614_24 #x0000000000000000))
(assert (= temp5614_25 (select ARGNAME_out_backprop_NAMEEND_DIMSIZE temp5614_24)))
(assert (= temp5614_26 #x0000000000000001))
(assert (= temp5614_27 (select ARGNAME_out_backprop_NAMEEND_DIMSIZE temp5614_26)))
(assert (= temp5614_28 #x0000000000000002))
(assert (= temp5614_29 (select ARGNAME_out_backprop_NAMEEND_DIMSIZE temp5614_28)))
(assert (= temp5614_30 #x0000000000000003))
(assert (= temp5614_31 (select ARGNAME_out_backprop_NAMEEND_DIMSIZE temp5614_30)))
(assert (= temp5614_32 #x0000000000000004))
(assert (= temp5614_33 (select ARGNAME_out_backprop_NAMEEND_DIMSIZE temp5614_32)))
(assert (= temp5614_34 #x0000000000000005))
(assert (= temp5614_35 (select ARGNAME_out_backprop_NAMEEND_DIMSIZE temp5614_34)))
(assert (= temp5614_36 #x0000000000000004))
(assert (= temp5614_37 (select ARGNAME_out_backprop_NAMEEND_DIMSIZE temp5614_36)))
(assert (= var76165 temp5614_37))
(assert (= temp5614_38 #x0000000000000000))
(assert (= var76268
   (ite (= ARGNAME_input_NAMEEND_NUMELEMENT temp5614_38)
        #x0000000000000001
        #x0000000000000000)))
(assert (= temp5614_39 #x0000000000000000))
(assert (= var76268 temp5614_39))
(assert (= temp5614_40 #x0000000000000001))
(assert (= var341046 temp5614_40))
(assert (= temp5614_41 #x0000000000000001))
(assert (= var341064
   (ite (bvslt var341046 temp5614_41) #x0000000000000001 #x0000000000000000)))
(assert (= temp5614_42 #x0000000000000000))
(assert (= var341064 temp5614_42))
(assert (= temp5614_43 #x0000000000000001))
(assert (= var472118 temp5614_43))
(assert (= temp5614_44 #x0000000000000001))
(assert (= var472136
   (ite (bvslt var472118 temp5614_44) #x0000000000000001 #x0000000000000000)))
(assert (= temp5614_45 #x0000000000000000))
(assert (= var472136 temp5614_45))
(assert (= temp5614_47 #x0000000000000000))
(assert (= temp5614_46 temp5614_47))
(assert (= temp5614_49 #x0000000000000000))
(assert (= temp5614_48 temp5614_49))
(assert (= temp5614_50 #x0000000000000001))
(assert (= var603190 temp5614_50))
(assert (= temp5614_51 #x0000000000000001))
(assert (= var603208
   (ite (bvslt var603190 temp5614_51) #x0000000000000001 #x0000000000000000)))
(assert (= temp5614_52 #x0000000000000000))
(assert (= var603208 temp5614_52))
(assert (= temp5614_54 #x0000000000000000))
(assert (= temp5614_53 temp5614_54))
(assert (= temp5614_56 #x00000000000000ff))
(assert (= temp5614_55 temp5614_56))
(assert (= temp5614_58 #x00000000000000ff))
(assert (= temp5614_57 temp5614_58))
(assert (= temp5614_60 #x00000000000000ff))
(assert (= temp5614_59 temp5614_60))
(assert (= temp5614_61 #x0000000000000000))
(assert (= var861259 temp5614_61))
(assert (= var861238 var861259))
(assert (= var795670 var861238))
(assert (= temp5614_62 #x0000000000000000))
(assert (= var795670 temp5614_62))
(assert (= temp5614_63 #x0000000000000000))
(assert (= var926795 temp5614_63))
(assert (= var926774 var926795))
(assert (= var795680 var926774))
(assert (= temp5614_64 #x0000000000000000))
(assert (= var795680 temp5614_64))
(assert (= temp5614_65 #x0000000000000000))
(assert (= var992331 temp5614_65))
(assert (= var992310 var992331))
(assert (= var795683 var992310))
(assert (= temp5614_66 #x0000000000000000))
(assert (= var795683 temp5614_66))
(assert (= temp5614_67 #x0000000000008000))
(assert (= var1188914 temp5614_67))
(assert (= temp5614_68 #x0000000000040000))
(assert (= var1254450 temp5614_68))
(assert (= temp5614_69 #x0000000000200000))
(assert (= var1319986 temp5614_69))
(model-add temp5614_1 () (_ BitVec 64) #x0000000000000001)
(model-add var139826 () (_ BitVec 64) #x0000000000000001)
(model-add var139820 () (_ BitVec 64) #x0000000000000001)
(model-add temp5614_2 () (_ BitVec 64) #x0000000000000001)
(model-add var75949 () (_ BitVec 64) #x0000000000000001)
(model-del k!0)
(model-add ARGNAME_filter_sizes_NAMEEND_DIM
           ()
           (_ BitVec 64)
           (ite k!0 #x0000000000000001 (bvnot #x0000000000000001)))



